0000000000000000
0001111000111100
0000111000111000
0000111001111000
0000001111000000
0000001111000000
0000111001110000
0001110000111000
0011100000011100
0000000000000000
0000000000000000
0000000000000000
0000000000000000
0000000000000000
0000000000000000
0000000000000000